\* Maximize_Interest *\
Maximize
Total_Daily_Interest: 0.000876712328767 interest_enpara_0
 + 0.000958904109589 interest_enpara_1 + 0.00104109589041 interest_enpara_2
 + 0.00112328767123 interest_enpara_3
 + 0.00130136986301 interest_getir_finans_1
 + 0.00130136986301 interest_getir_finans_2
 + 0.00130136986301 interest_getir_finans_3
 + 0.00130136986301 interest_getir_finans_4
 + 0.00130136986301 interest_getir_finans_5
 + 0.00130136986301 interest_getir_finans_6
 + 0.00130136986301 interest_getir_finans_7
 + 0.000821917808219 interest_getir_finans_8
 + 0.00117808219178 interest_odeabank_devam_1
 + 0.00117808219178 interest_odeabank_devam_2
 + 0.00117808219178 interest_odeabank_devam_3
 + 0.00112328767123 interest_odeabank_devam_4
 + 0.00109589041096 interest_odeabank_devam_5
 + 0.00109589041096 interest_odeabank_devam_6
 + 0.00109589041096 interest_odeabank_devam_7
 + 0.000958904109589 interest_odeabank_devam_8
 + 0.000356164383562 interest_odeabank_devam_9
 + 0.00139726027397 interest_odeabank_hosgeldin_1
 + 0.00139726027397 interest_odeabank_hosgeldin_2
 + 0.00139726027397 interest_odeabank_hosgeldin_3
 + 0.00139726027397 interest_odeabank_hosgeldin_4
 + 0.00139726027397 interest_odeabank_hosgeldin_5
 + 0.00139726027397 interest_odeabank_hosgeldin_6
 + 0.00139726027397 interest_odeabank_hosgeldin_7
 + 0.00139726027397 interest_odeabank_hosgeldin_8
 + 0.000369863013699 interest_odeabank_hosgeldin_9
 + 0.00145205479452 interest_onhesap_1 + 0.00128767123288 interest_onhesap_10
 + 0.00145205479452 interest_onhesap_2 + 0.00145205479452 interest_onhesap_3
 + 0.00145205479452 interest_onhesap_4 + 0.0013698630137 interest_onhesap_5
 + 0.00131506849315 interest_onhesap_6 + 0.00128767123288 interest_onhesap_7
 + 0.00128767123288 interest_onhesap_8 + 0.00128767123288 interest_onhesap_9
 + 0.00139726027397 interest_teb_marifetli_hesap_1
 + 0.00139726027397 interest_teb_marifetli_hesap_10
 + 0.00139726027397 interest_teb_marifetli_hesap_2
 + 0.00139726027397 interest_teb_marifetli_hesap_3
 + 0.00139726027397 interest_teb_marifetli_hesap_4
 + 0.00139726027397 interest_teb_marifetli_hesap_5
 + 0.00139726027397 interest_teb_marifetli_hesap_6
 + 0.00139726027397 interest_teb_marifetli_hesap_7
 + 0.00139726027397 interest_teb_marifetli_hesap_8
 + 0.00139726027397 interest_teb_marifetli_hesap_9
Subject To
Interest_Lower_enpara_0: - deposit_enpara + interest_enpara_0
 - 3500000 range_enpara_0 >= -3500000
Interest_Lower_enpara_1: - deposit_enpara + interest_enpara_1
 - 3500000 range_enpara_1 >= -3500000
Interest_Lower_enpara_2: - deposit_enpara + interest_enpara_2
 - 3500000 range_enpara_2 >= -3500000
Interest_Lower_enpara_3: - deposit_enpara + interest_enpara_3
 - 3500000 range_enpara_3 >= -3500000
Interest_Lower_getir_finans_0: - deposit_getir_finans
 + interest_getir_finans_0 - 3500000 range_getir_finans_0 >= -3500000
Interest_Lower_getir_finans_1: - deposit_getir_finans
 + interest_getir_finans_1 - 3500000 range_getir_finans_1 >= -3502500
Interest_Lower_getir_finans_2: - deposit_getir_finans
 + interest_getir_finans_2 - 3500000 range_getir_finans_2 >= -3505000
Interest_Lower_getir_finans_3: - deposit_getir_finans
 + interest_getir_finans_3 - 3500000 range_getir_finans_3 >= -3507500
Interest_Lower_getir_finans_4: - deposit_getir_finans
 + interest_getir_finans_4 - 3500000 range_getir_finans_4 >= -3520000
Interest_Lower_getir_finans_5: - deposit_getir_finans
 + interest_getir_finans_5 - 3500000 range_getir_finans_5 >= -3540000
Interest_Lower_getir_finans_6: - deposit_getir_finans
 + interest_getir_finans_6 - 3500000 range_getir_finans_6 >= -3575000
Interest_Lower_getir_finans_7: - deposit_getir_finans
 + interest_getir_finans_7 - 3500000 range_getir_finans_7 >= -3600000
Interest_Lower_getir_finans_8: - deposit_getir_finans
 + interest_getir_finans_8 - 3500000 range_getir_finans_8 >= -3600000
Interest_Lower_odeabank_devam_0: - deposit_odeabank_devam
 + interest_odeabank_devam_0 - 3500000 range_odeabank_devam_0 >= -3500000
Interest_Lower_odeabank_devam_1: - deposit_odeabank_devam
 + interest_odeabank_devam_1 - 3500000 range_odeabank_devam_1 >= -3507500
Interest_Lower_odeabank_devam_2: - deposit_odeabank_devam
 + interest_odeabank_devam_2 - 3500000 range_odeabank_devam_2 >= -3510000
Interest_Lower_odeabank_devam_3: - deposit_odeabank_devam
 + interest_odeabank_devam_3 - 3500000 range_odeabank_devam_3 >= -3520000
Interest_Lower_odeabank_devam_4: - deposit_odeabank_devam
 + interest_odeabank_devam_4 - 3500000 range_odeabank_devam_4 >= -3540000
Interest_Lower_odeabank_devam_5: - deposit_odeabank_devam
 + interest_odeabank_devam_5 - 3500000 range_odeabank_devam_5 >= -3575000
Interest_Lower_odeabank_devam_6: - deposit_odeabank_devam
 + interest_odeabank_devam_6 - 3500000 range_odeabank_devam_6 >= -3625000
Interest_Lower_odeabank_devam_7: - deposit_odeabank_devam
 + interest_odeabank_devam_7 - 3500000 range_odeabank_devam_7 >= -3700000
Interest_Lower_odeabank_devam_8: - deposit_odeabank_devam
 + interest_odeabank_devam_8 - 3500000 range_odeabank_devam_8 >= -3800000
Interest_Lower_odeabank_devam_9: - deposit_odeabank_devam
 + interest_odeabank_devam_9 - 3500000 range_odeabank_devam_9 >= -4000000
Interest_Lower_odeabank_hosgeldin_0: - deposit_odeabank_hosgeldin
 + interest_odeabank_hosgeldin_0 - 3500000 range_odeabank_hosgeldin_0
 >= -3500000
Interest_Lower_odeabank_hosgeldin_1: - deposit_odeabank_hosgeldin
 + interest_odeabank_hosgeldin_1 - 3500000 range_odeabank_hosgeldin_1
 >= -3507500
Interest_Lower_odeabank_hosgeldin_2: - deposit_odeabank_hosgeldin
 + interest_odeabank_hosgeldin_2 - 3500000 range_odeabank_hosgeldin_2
 >= -3510000
Interest_Lower_odeabank_hosgeldin_3: - deposit_odeabank_hosgeldin
 + interest_odeabank_hosgeldin_3 - 3500000 range_odeabank_hosgeldin_3
 >= -3520000
Interest_Lower_odeabank_hosgeldin_4: - deposit_odeabank_hosgeldin
 + interest_odeabank_hosgeldin_4 - 3500000 range_odeabank_hosgeldin_4
 >= -3540000
Interest_Lower_odeabank_hosgeldin_5: - deposit_odeabank_hosgeldin
 + interest_odeabank_hosgeldin_5 - 3500000 range_odeabank_hosgeldin_5
 >= -3575000
Interest_Lower_odeabank_hosgeldin_6: - deposit_odeabank_hosgeldin
 + interest_odeabank_hosgeldin_6 - 3500000 range_odeabank_hosgeldin_6
 >= -3625000
Interest_Lower_odeabank_hosgeldin_7: - deposit_odeabank_hosgeldin
 + interest_odeabank_hosgeldin_7 - 3500000 range_odeabank_hosgeldin_7
 >= -3700000
Interest_Lower_odeabank_hosgeldin_8: - deposit_odeabank_hosgeldin
 + interest_odeabank_hosgeldin_8 - 3500000 range_odeabank_hosgeldin_8
 >= -3800000
Interest_Lower_odeabank_hosgeldin_9: - deposit_odeabank_hosgeldin
 + interest_odeabank_hosgeldin_9 - 3500000 range_odeabank_hosgeldin_9
 >= -4000000
Interest_Lower_onhesap_0: - deposit_onhesap + interest_onhesap_0
 - 3500000 range_onhesap_0 >= -3500000
Interest_Lower_onhesap_1: - deposit_onhesap + interest_onhesap_1
 - 3500000 range_onhesap_1 >= -3505000
Interest_Lower_onhesap_10: - deposit_onhesap + interest_onhesap_10
 - 3500000 range_onhesap_10 >= -3650000
Interest_Lower_onhesap_2: - deposit_onhesap + interest_onhesap_2
 - 3500000 range_onhesap_2 >= -3507500
Interest_Lower_onhesap_3: - deposit_onhesap + interest_onhesap_3
 - 3500000 range_onhesap_3 >= -3512500
Interest_Lower_onhesap_4: - deposit_onhesap + interest_onhesap_4
 - 3500000 range_onhesap_4 >= -3530000
Interest_Lower_onhesap_5: - deposit_onhesap + interest_onhesap_5
 - 3500000 range_onhesap_5 >= -3550000
Interest_Lower_onhesap_6: - deposit_onhesap + interest_onhesap_6
 - 3500000 range_onhesap_6 >= -3570000
Interest_Lower_onhesap_7: - deposit_onhesap + interest_onhesap_7
 - 3500000 range_onhesap_7 >= -3585000
Interest_Lower_onhesap_8: - deposit_onhesap + interest_onhesap_8
 - 3500000 range_onhesap_8 >= -3610000
Interest_Lower_onhesap_9: - deposit_onhesap + interest_onhesap_9
 - 3500000 range_onhesap_9 >= -3625000
Interest_Lower_teb_marifetli_hesap_0: - deposit_teb_marifetli_hesap
 + interest_teb_marifetli_hesap_0 - 3500000 range_teb_marifetli_hesap_0
 >= -3500000
Interest_Lower_teb_marifetli_hesap_1: - deposit_teb_marifetli_hesap
 + interest_teb_marifetli_hesap_1 - 3500000 range_teb_marifetli_hesap_1
 >= -3505000
Interest_Lower_teb_marifetli_hesap_10: - deposit_teb_marifetli_hesap
 + interest_teb_marifetli_hesap_10 - 3500000 range_teb_marifetli_hesap_10
 >= -3700000
Interest_Lower_teb_marifetli_hesap_2: - deposit_teb_marifetli_hesap
 + interest_teb_marifetli_hesap_2 - 3500000 range_teb_marifetli_hesap_2
 >= -3507500
Interest_Lower_teb_marifetli_hesap_3: - deposit_teb_marifetli_hesap
 + interest_teb_marifetli_hesap_3 - 3500000 range_teb_marifetli_hesap_3
 >= -3515000
Interest_Lower_teb_marifetli_hesap_4: - deposit_teb_marifetli_hesap
 + interest_teb_marifetli_hesap_4 - 3500000 range_teb_marifetli_hesap_4
 >= -3530000
Interest_Lower_teb_marifetli_hesap_5: - deposit_teb_marifetli_hesap
 + interest_teb_marifetli_hesap_5 - 3500000 range_teb_marifetli_hesap_5
 >= -3550000
Interest_Lower_teb_marifetli_hesap_6: - deposit_teb_marifetli_hesap
 + interest_teb_marifetli_hesap_6 - 3500000 range_teb_marifetli_hesap_6
 >= -3550000
Interest_Lower_teb_marifetli_hesap_7: - deposit_teb_marifetli_hesap
 + interest_teb_marifetli_hesap_7 - 3500000 range_teb_marifetli_hesap_7
 >= -3575000
Interest_Lower_teb_marifetli_hesap_8: - deposit_teb_marifetli_hesap
 + interest_teb_marifetli_hesap_8 - 3500000 range_teb_marifetli_hesap_8
 >= -3600000
Interest_Lower_teb_marifetli_hesap_9: - deposit_teb_marifetli_hesap
 + interest_teb_marifetli_hesap_9 - 3500000 range_teb_marifetli_hesap_9
 >= -3650000
Interest_Upper1_enpara_0: - deposit_enpara + interest_enpara_0 <= 0
Interest_Upper1_enpara_1: - deposit_enpara + interest_enpara_1 <= 0
Interest_Upper1_enpara_2: - deposit_enpara + interest_enpara_2 <= 0
Interest_Upper1_enpara_3: - deposit_enpara + interest_enpara_3 <= 0
Interest_Upper1_getir_finans_0: - deposit_getir_finans
 + interest_getir_finans_0 <= 0
Interest_Upper1_getir_finans_1: - deposit_getir_finans
 + interest_getir_finans_1 <= -2500
Interest_Upper1_getir_finans_2: - deposit_getir_finans
 + interest_getir_finans_2 <= -5000
Interest_Upper1_getir_finans_3: - deposit_getir_finans
 + interest_getir_finans_3 <= -7500
Interest_Upper1_getir_finans_4: - deposit_getir_finans
 + interest_getir_finans_4 <= -20000
Interest_Upper1_getir_finans_5: - deposit_getir_finans
 + interest_getir_finans_5 <= -40000
Interest_Upper1_getir_finans_6: - deposit_getir_finans
 + interest_getir_finans_6 <= -75000
Interest_Upper1_getir_finans_7: - deposit_getir_finans
 + interest_getir_finans_7 <= -100000
Interest_Upper1_getir_finans_8: - deposit_getir_finans
 + interest_getir_finans_8 <= -100000
Interest_Upper1_odeabank_devam_0: - deposit_odeabank_devam
 + interest_odeabank_devam_0 <= 0
Interest_Upper1_odeabank_devam_1: - deposit_odeabank_devam
 + interest_odeabank_devam_1 <= -7500
Interest_Upper1_odeabank_devam_2: - deposit_odeabank_devam
 + interest_odeabank_devam_2 <= -10000
Interest_Upper1_odeabank_devam_3: - deposit_odeabank_devam
 + interest_odeabank_devam_3 <= -20000
Interest_Upper1_odeabank_devam_4: - deposit_odeabank_devam
 + interest_odeabank_devam_4 <= -40000
Interest_Upper1_odeabank_devam_5: - deposit_odeabank_devam
 + interest_odeabank_devam_5 <= -75000
Interest_Upper1_odeabank_devam_6: - deposit_odeabank_devam
 + interest_odeabank_devam_6 <= -125000
Interest_Upper1_odeabank_devam_7: - deposit_odeabank_devam
 + interest_odeabank_devam_7 <= -200000
Interest_Upper1_odeabank_devam_8: - deposit_odeabank_devam
 + interest_odeabank_devam_8 <= -300000
Interest_Upper1_odeabank_devam_9: - deposit_odeabank_devam
 + interest_odeabank_devam_9 <= -500000
Interest_Upper1_odeabank_hosgeldin_0: - deposit_odeabank_hosgeldin
 + interest_odeabank_hosgeldin_0 <= 0
Interest_Upper1_odeabank_hosgeldin_1: - deposit_odeabank_hosgeldin
 + interest_odeabank_hosgeldin_1 <= -7500
Interest_Upper1_odeabank_hosgeldin_2: - deposit_odeabank_hosgeldin
 + interest_odeabank_hosgeldin_2 <= -10000
Interest_Upper1_odeabank_hosgeldin_3: - deposit_odeabank_hosgeldin
 + interest_odeabank_hosgeldin_3 <= -20000
Interest_Upper1_odeabank_hosgeldin_4: - deposit_odeabank_hosgeldin
 + interest_odeabank_hosgeldin_4 <= -40000
Interest_Upper1_odeabank_hosgeldin_5: - deposit_odeabank_hosgeldin
 + interest_odeabank_hosgeldin_5 <= -75000
Interest_Upper1_odeabank_hosgeldin_6: - deposit_odeabank_hosgeldin
 + interest_odeabank_hosgeldin_6 <= -125000
Interest_Upper1_odeabank_hosgeldin_7: - deposit_odeabank_hosgeldin
 + interest_odeabank_hosgeldin_7 <= -200000
Interest_Upper1_odeabank_hosgeldin_8: - deposit_odeabank_hosgeldin
 + interest_odeabank_hosgeldin_8 <= -300000
Interest_Upper1_odeabank_hosgeldin_9: - deposit_odeabank_hosgeldin
 + interest_odeabank_hosgeldin_9 <= -500000
Interest_Upper1_onhesap_0: - deposit_onhesap + interest_onhesap_0 <= 0
Interest_Upper1_onhesap_1: - deposit_onhesap + interest_onhesap_1 <= -5000
Interest_Upper1_onhesap_10: - deposit_onhesap + interest_onhesap_10 <= -150000
Interest_Upper1_onhesap_2: - deposit_onhesap + interest_onhesap_2 <= -7500
Interest_Upper1_onhesap_3: - deposit_onhesap + interest_onhesap_3 <= -12500
Interest_Upper1_onhesap_4: - deposit_onhesap + interest_onhesap_4 <= -30000
Interest_Upper1_onhesap_5: - deposit_onhesap + interest_onhesap_5 <= -50000
Interest_Upper1_onhesap_6: - deposit_onhesap + interest_onhesap_6 <= -70000
Interest_Upper1_onhesap_7: - deposit_onhesap + interest_onhesap_7 <= -85000
Interest_Upper1_onhesap_8: - deposit_onhesap + interest_onhesap_8 <= -110000
Interest_Upper1_onhesap_9: - deposit_onhesap + interest_onhesap_9 <= -125000
Interest_Upper1_teb_marifetli_hesap_0: - deposit_teb_marifetli_hesap
 + interest_teb_marifetli_hesap_0 <= 0
Interest_Upper1_teb_marifetli_hesap_1: - deposit_teb_marifetli_hesap
 + interest_teb_marifetli_hesap_1 <= -5000
Interest_Upper1_teb_marifetli_hesap_10: - deposit_teb_marifetli_hesap
 + interest_teb_marifetli_hesap_10 <= -200000
Interest_Upper1_teb_marifetli_hesap_2: - deposit_teb_marifetli_hesap
 + interest_teb_marifetli_hesap_2 <= -7500
Interest_Upper1_teb_marifetli_hesap_3: - deposit_teb_marifetli_hesap
 + interest_teb_marifetli_hesap_3 <= -15000
Interest_Upper1_teb_marifetli_hesap_4: - deposit_teb_marifetli_hesap
 + interest_teb_marifetli_hesap_4 <= -30000
Interest_Upper1_teb_marifetli_hesap_5: - deposit_teb_marifetli_hesap
 + interest_teb_marifetli_hesap_5 <= -50000
Interest_Upper1_teb_marifetli_hesap_6: - deposit_teb_marifetli_hesap
 + interest_teb_marifetli_hesap_6 <= -50000
Interest_Upper1_teb_marifetli_hesap_7: - deposit_teb_marifetli_hesap
 + interest_teb_marifetli_hesap_7 <= -75000
Interest_Upper1_teb_marifetli_hesap_8: - deposit_teb_marifetli_hesap
 + interest_teb_marifetli_hesap_8 <= -100000
Interest_Upper1_teb_marifetli_hesap_9: - deposit_teb_marifetli_hesap
 + interest_teb_marifetli_hesap_9 <= -150000
Interest_Upper2_enpara_0: interest_enpara_0 - 100000 range_enpara_0 <= 0
Interest_Upper2_enpara_1: interest_enpara_1 - 500000 range_enpara_1 <= 0
Interest_Upper2_enpara_2: interest_enpara_2 - 1000000 range_enpara_2 <= 0
Interest_Upper2_enpara_3: interest_enpara_3 - 3500000 range_enpara_3 <= 0
Interest_Upper2_getir_finans_0: interest_getir_finans_0
 - 2500 range_getir_finans_0 <= 0
Interest_Upper2_getir_finans_1: interest_getir_finans_1
 - 22500 range_getir_finans_1 <= 0
Interest_Upper2_getir_finans_2: interest_getir_finans_2
 - 45000 range_getir_finans_2 <= 0
Interest_Upper2_getir_finans_3: interest_getir_finans_3
 - 92500 range_getir_finans_3 <= 0
Interest_Upper2_getir_finans_4: interest_getir_finans_4
 - 480000 range_getir_finans_4 <= 0
Interest_Upper2_getir_finans_5: interest_getir_finans_5
 - 960000 range_getir_finans_5 <= 0
Interest_Upper2_getir_finans_6: interest_getir_finans_6
 - 1925000 range_getir_finans_6 <= 0
Interest_Upper2_getir_finans_7: interest_getir_finans_7
 - 2000000 range_getir_finans_7 <= 0
Interest_Upper2_getir_finans_8: interest_getir_finans_8
 - 3400000 range_getir_finans_8 <= 0
Interest_Upper2_odeabank_devam_0: interest_odeabank_devam_0
 - 7500 range_odeabank_devam_0 <= 0
Interest_Upper2_odeabank_devam_1: interest_odeabank_devam_1
 - 42500 range_odeabank_devam_1 <= 0
Interest_Upper2_odeabank_devam_2: interest_odeabank_devam_2
 - 90000 range_odeabank_devam_2 <= 0
Interest_Upper2_odeabank_devam_3: interest_odeabank_devam_3
 - 230000 range_odeabank_devam_3 <= 0
Interest_Upper2_odeabank_devam_4: interest_odeabank_devam_4
 - 460000 range_odeabank_devam_4 <= 0
Interest_Upper2_odeabank_devam_5: interest_odeabank_devam_5
 - 675000 range_odeabank_devam_5 <= 0
Interest_Upper2_odeabank_devam_6: interest_odeabank_devam_6
 - 875000 range_odeabank_devam_6 <= 0
Interest_Upper2_odeabank_devam_7: interest_odeabank_devam_7
 - 1800000 range_odeabank_devam_7 <= 0
Interest_Upper2_odeabank_devam_8: interest_odeabank_devam_8
 - 3200000 range_odeabank_devam_8 <= 0
Interest_Upper2_odeabank_devam_9: interest_odeabank_devam_9
 - 3000000 range_odeabank_devam_9 <= 0
Interest_Upper2_odeabank_hosgeldin_0: interest_odeabank_hosgeldin_0
 - 7500 range_odeabank_hosgeldin_0 <= 0
Interest_Upper2_odeabank_hosgeldin_1: interest_odeabank_hosgeldin_1
 - 42500 range_odeabank_hosgeldin_1 <= 0
Interest_Upper2_odeabank_hosgeldin_2: interest_odeabank_hosgeldin_2
 - 90000 range_odeabank_hosgeldin_2 <= 0
Interest_Upper2_odeabank_hosgeldin_3: interest_odeabank_hosgeldin_3
 - 230000 range_odeabank_hosgeldin_3 <= 0
Interest_Upper2_odeabank_hosgeldin_4: interest_odeabank_hosgeldin_4
 - 460000 range_odeabank_hosgeldin_4 <= 0
Interest_Upper2_odeabank_hosgeldin_5: interest_odeabank_hosgeldin_5
 - 675000 range_odeabank_hosgeldin_5 <= 0
Interest_Upper2_odeabank_hosgeldin_6: interest_odeabank_hosgeldin_6
 - 875000 range_odeabank_hosgeldin_6 <= 0
Interest_Upper2_odeabank_hosgeldin_7: interest_odeabank_hosgeldin_7
 - 1800000 range_odeabank_hosgeldin_7 <= 0
Interest_Upper2_odeabank_hosgeldin_8: interest_odeabank_hosgeldin_8
 - 3200000 range_odeabank_hosgeldin_8 <= 0
Interest_Upper2_odeabank_hosgeldin_9: interest_odeabank_hosgeldin_9
 - 3000000 range_odeabank_hosgeldin_9 <= 0
Interest_Upper2_onhesap_0: interest_onhesap_0 - 5500 range_onhesap_0 <= 0
Interest_Upper2_onhesap_1: interest_onhesap_1 - 44999 range_onhesap_1 <= 0
Interest_Upper2_onhesap_10: interest_onhesap_10 - 1850000 range_onhesap_10
 <= 0
Interest_Upper2_onhesap_2: interest_onhesap_2 - 92499 range_onhesap_2 <= 0
Interest_Upper2_onhesap_3: interest_onhesap_3 - 237499 range_onhesap_3 <= 0
Interest_Upper2_onhesap_4: interest_onhesap_4 - 469999 range_onhesap_4 <= 0
Interest_Upper2_onhesap_5: interest_onhesap_5 - 699999 range_onhesap_5 <= 0
Interest_Upper2_onhesap_6: interest_onhesap_6 - 929999 range_onhesap_6 <= 0
Interest_Upper2_onhesap_7: interest_onhesap_7 - 1164999 range_onhesap_7 <= 0
Interest_Upper2_onhesap_8: interest_onhesap_8 - 1389999 range_onhesap_8 <= 0
Interest_Upper2_onhesap_9: interest_onhesap_9 - 1624999 range_onhesap_9 <= 0
Interest_Upper2_teb_marifetli_hesap_0: interest_teb_marifetli_hesap_0
 - 2000 range_teb_marifetli_hesap_0 <= 0
Interest_Upper2_teb_marifetli_hesap_1: interest_teb_marifetli_hesap_1
 - 44999 range_teb_marifetli_hesap_1 <= 0
Interest_Upper2_teb_marifetli_hesap_10: interest_teb_marifetli_hesap_10
 - 3300000 range_teb_marifetli_hesap_10 <= 0
Interest_Upper2_teb_marifetli_hesap_2: interest_teb_marifetli_hesap_2
 - 92499 range_teb_marifetli_hesap_2 <= 0
Interest_Upper2_teb_marifetli_hesap_3: interest_teb_marifetli_hesap_3
 - 234999 range_teb_marifetli_hesap_3 <= 0
Interest_Upper2_teb_marifetli_hesap_4: interest_teb_marifetli_hesap_4
 - 469999 range_teb_marifetli_hesap_4 <= 0
Interest_Upper2_teb_marifetli_hesap_5: interest_teb_marifetli_hesap_5
 - 699999 range_teb_marifetli_hesap_5 <= 0
Interest_Upper2_teb_marifetli_hesap_6: interest_teb_marifetli_hesap_6
 - 949999 range_teb_marifetli_hesap_6 <= 0
Interest_Upper2_teb_marifetli_hesap_7: interest_teb_marifetli_hesap_7
 - 1425000 range_teb_marifetli_hesap_7 <= 0
Interest_Upper2_teb_marifetli_hesap_8: interest_teb_marifetli_hesap_8
 - 1900000 range_teb_marifetli_hesap_8 <= 0
Interest_Upper2_teb_marifetli_hesap_9: interest_teb_marifetli_hesap_9
 - 2850000 range_teb_marifetli_hesap_9 <= 0
Max_Limit_enpara_0: deposit_enpara - 100000 range_enpara_0 <= 0
Max_Limit_enpara_1: deposit_enpara - 500000 range_enpara_1 <= 0
Max_Limit_enpara_2: deposit_enpara - 1000000 range_enpara_2 <= 0
Max_Limit_enpara_3: deposit_enpara - 3500000 range_enpara_3 <= 0
Max_Limit_getir_finans_0: deposit_getir_finans - 2500 range_getir_finans_0
 <= 0
Max_Limit_getir_finans_1: deposit_getir_finans - 25000 range_getir_finans_1
 <= 0
Max_Limit_getir_finans_2: deposit_getir_finans - 50000 range_getir_finans_2
 <= 0
Max_Limit_getir_finans_3: deposit_getir_finans - 100000 range_getir_finans_3
 <= 0
Max_Limit_getir_finans_4: deposit_getir_finans - 500000 range_getir_finans_4
 <= 0
Max_Limit_getir_finans_5: deposit_getir_finans - 1000000 range_getir_finans_5
 <= 0
Max_Limit_getir_finans_6: deposit_getir_finans - 2000000 range_getir_finans_6
 <= 0
Max_Limit_getir_finans_7: deposit_getir_finans - 2100000 range_getir_finans_7
 <= 0
Max_Limit_getir_finans_8: deposit_getir_finans - 3500000 range_getir_finans_8
 <= 0
Max_Limit_odeabank_devam_0: deposit_odeabank_devam
 - 7500 range_odeabank_devam_0 <= 0
Max_Limit_odeabank_devam_1: deposit_odeabank_devam
 - 50000 range_odeabank_devam_1 <= 0
Max_Limit_odeabank_devam_2: deposit_odeabank_devam
 - 100000 range_odeabank_devam_2 <= 0
Max_Limit_odeabank_devam_3: deposit_odeabank_devam
 - 250000 range_odeabank_devam_3 <= 0
Max_Limit_odeabank_devam_4: deposit_odeabank_devam
 - 500000 range_odeabank_devam_4 <= 0
Max_Limit_odeabank_devam_5: deposit_odeabank_devam
 - 750000 range_odeabank_devam_5 <= 0
Max_Limit_odeabank_devam_6: deposit_odeabank_devam
 - 1000000 range_odeabank_devam_6 <= 0
Max_Limit_odeabank_devam_7: deposit_odeabank_devam
 - 2000000 range_odeabank_devam_7 <= 0
Max_Limit_odeabank_devam_8: deposit_odeabank_devam
 - 3500000 range_odeabank_devam_8 <= 0
Max_Limit_odeabank_devam_9: deposit_odeabank_devam
 - 3500000 range_odeabank_devam_9 <= 0
Max_Limit_odeabank_hosgeldin_0: deposit_odeabank_hosgeldin
 - 7500 range_odeabank_hosgeldin_0 <= 0
Max_Limit_odeabank_hosgeldin_1: deposit_odeabank_hosgeldin
 - 50000 range_odeabank_hosgeldin_1 <= 0
Max_Limit_odeabank_hosgeldin_2: deposit_odeabank_hosgeldin
 - 100000 range_odeabank_hosgeldin_2 <= 0
Max_Limit_odeabank_hosgeldin_3: deposit_odeabank_hosgeldin
 - 250000 range_odeabank_hosgeldin_3 <= 0
Max_Limit_odeabank_hosgeldin_4: deposit_odeabank_hosgeldin
 - 500000 range_odeabank_hosgeldin_4 <= 0
Max_Limit_odeabank_hosgeldin_5: deposit_odeabank_hosgeldin
 - 750000 range_odeabank_hosgeldin_5 <= 0
Max_Limit_odeabank_hosgeldin_6: deposit_odeabank_hosgeldin
 - 1000000 range_odeabank_hosgeldin_6 <= 0
Max_Limit_odeabank_hosgeldin_7: deposit_odeabank_hosgeldin
 - 2000000 range_odeabank_hosgeldin_7 <= 0
Max_Limit_odeabank_hosgeldin_8: deposit_odeabank_hosgeldin
 - 3500000 range_odeabank_hosgeldin_8 <= 0
Max_Limit_odeabank_hosgeldin_9: deposit_odeabank_hosgeldin
 - 3500000 range_odeabank_hosgeldin_9 <= 0
Max_Limit_onhesap_0: deposit_onhesap - 5500 range_onhesap_0 <= 0
Max_Limit_onhesap_1: deposit_onhesap - 49999 range_onhesap_1 <= 0
Max_Limit_onhesap_10: deposit_onhesap - 2000000 range_onhesap_10 <= 0
Max_Limit_onhesap_2: deposit_onhesap - 99999 range_onhesap_2 <= 0
Max_Limit_onhesap_3: deposit_onhesap - 249999 range_onhesap_3 <= 0
Max_Limit_onhesap_4: deposit_onhesap - 499999 range_onhesap_4 <= 0
Max_Limit_onhesap_5: deposit_onhesap - 749999 range_onhesap_5 <= 0
Max_Limit_onhesap_6: deposit_onhesap - 999999 range_onhesap_6 <= 0
Max_Limit_onhesap_7: deposit_onhesap - 1249999 range_onhesap_7 <= 0
Max_Limit_onhesap_8: deposit_onhesap - 1499999 range_onhesap_8 <= 0
Max_Limit_onhesap_9: deposit_onhesap - 1749999 range_onhesap_9 <= 0
Max_Limit_teb_marifetli_hesap_0: deposit_teb_marifetli_hesap
 - 2000 range_teb_marifetli_hesap_0 <= 0
Max_Limit_teb_marifetli_hesap_1: deposit_teb_marifetli_hesap
 - 49999 range_teb_marifetli_hesap_1 <= 0
Max_Limit_teb_marifetli_hesap_10: deposit_teb_marifetli_hesap
 - 3500000 range_teb_marifetli_hesap_10 <= 0
Max_Limit_teb_marifetli_hesap_2: deposit_teb_marifetli_hesap
 - 99999 range_teb_marifetli_hesap_2 <= 0
Max_Limit_teb_marifetli_hesap_3: deposit_teb_marifetli_hesap
 - 249999 range_teb_marifetli_hesap_3 <= 0
Max_Limit_teb_marifetli_hesap_4: deposit_teb_marifetli_hesap
 - 499999 range_teb_marifetli_hesap_4 <= 0
Max_Limit_teb_marifetli_hesap_5: deposit_teb_marifetli_hesap
 - 749999 range_teb_marifetli_hesap_5 <= 0
Max_Limit_teb_marifetli_hesap_6: deposit_teb_marifetli_hesap
 - 999999 range_teb_marifetli_hesap_6 <= 0
Max_Limit_teb_marifetli_hesap_7: deposit_teb_marifetli_hesap
 - 1500000 range_teb_marifetli_hesap_7 <= 0
Max_Limit_teb_marifetli_hesap_8: deposit_teb_marifetli_hesap
 - 2000000 range_teb_marifetli_hesap_8 <= 0
Max_Limit_teb_marifetli_hesap_9: deposit_teb_marifetli_hesap
 - 3000000 range_teb_marifetli_hesap_9 <= 0
Min_Balance_Constraint_enpara_0: deposit_enpara >= 0
Min_Balance_Constraint_enpara_1: deposit_enpara >= 0
Min_Balance_Constraint_enpara_2: deposit_enpara >= 0
Min_Balance_Constraint_enpara_3: deposit_enpara >= 0
Min_Balance_Constraint_getir_finans_0: deposit_getir_finans >= 0
Min_Balance_Constraint_getir_finans_1: deposit_getir_finans
 - 2500 range_getir_finans_1 >= 0
Min_Balance_Constraint_getir_finans_2: deposit_getir_finans
 - 5000 range_getir_finans_2 >= 0
Min_Balance_Constraint_getir_finans_3: deposit_getir_finans
 - 7500 range_getir_finans_3 >= 0
Min_Balance_Constraint_getir_finans_4: deposit_getir_finans
 - 20000 range_getir_finans_4 >= 0
Min_Balance_Constraint_getir_finans_5: deposit_getir_finans
 - 40000 range_getir_finans_5 >= 0
Min_Balance_Constraint_getir_finans_6: deposit_getir_finans
 - 75000 range_getir_finans_6 >= 0
Min_Balance_Constraint_getir_finans_7: deposit_getir_finans
 - 100000 range_getir_finans_7 >= 0
Min_Balance_Constraint_getir_finans_8: deposit_getir_finans
 - 100000 range_getir_finans_8 >= 0
Min_Balance_Constraint_odeabank_devam_0: deposit_odeabank_devam >= 0
Min_Balance_Constraint_odeabank_devam_1: deposit_odeabank_devam
 - 7500 range_odeabank_devam_1 >= 0
Min_Balance_Constraint_odeabank_devam_2: deposit_odeabank_devam
 - 10000 range_odeabank_devam_2 >= 0
Min_Balance_Constraint_odeabank_devam_3: deposit_odeabank_devam
 - 20000 range_odeabank_devam_3 >= 0
Min_Balance_Constraint_odeabank_devam_4: deposit_odeabank_devam
 - 40000 range_odeabank_devam_4 >= 0
Min_Balance_Constraint_odeabank_devam_5: deposit_odeabank_devam
 - 75000 range_odeabank_devam_5 >= 0
Min_Balance_Constraint_odeabank_devam_6: deposit_odeabank_devam
 - 125000 range_odeabank_devam_6 >= 0
Min_Balance_Constraint_odeabank_devam_7: deposit_odeabank_devam
 - 200000 range_odeabank_devam_7 >= 0
Min_Balance_Constraint_odeabank_devam_8: deposit_odeabank_devam
 - 300000 range_odeabank_devam_8 >= 0
Min_Balance_Constraint_odeabank_devam_9: deposit_odeabank_devam
 - 500000 range_odeabank_devam_9 >= 0
Min_Balance_Constraint_odeabank_hosgeldin_0: deposit_odeabank_hosgeldin >= 0
Min_Balance_Constraint_odeabank_hosgeldin_1: deposit_odeabank_hosgeldin
 - 7500 range_odeabank_hosgeldin_1 >= 0
Min_Balance_Constraint_odeabank_hosgeldin_2: deposit_odeabank_hosgeldin
 - 10000 range_odeabank_hosgeldin_2 >= 0
Min_Balance_Constraint_odeabank_hosgeldin_3: deposit_odeabank_hosgeldin
 - 20000 range_odeabank_hosgeldin_3 >= 0
Min_Balance_Constraint_odeabank_hosgeldin_4: deposit_odeabank_hosgeldin
 - 40000 range_odeabank_hosgeldin_4 >= 0
Min_Balance_Constraint_odeabank_hosgeldin_5: deposit_odeabank_hosgeldin
 - 75000 range_odeabank_hosgeldin_5 >= 0
Min_Balance_Constraint_odeabank_hosgeldin_6: deposit_odeabank_hosgeldin
 - 125000 range_odeabank_hosgeldin_6 >= 0
Min_Balance_Constraint_odeabank_hosgeldin_7: deposit_odeabank_hosgeldin
 - 200000 range_odeabank_hosgeldin_7 >= 0
Min_Balance_Constraint_odeabank_hosgeldin_8: deposit_odeabank_hosgeldin
 - 300000 range_odeabank_hosgeldin_8 >= 0
Min_Balance_Constraint_odeabank_hosgeldin_9: deposit_odeabank_hosgeldin
 - 500000 range_odeabank_hosgeldin_9 >= 0
Min_Balance_Constraint_onhesap_0: deposit_onhesap >= 0
Min_Balance_Constraint_onhesap_1: deposit_onhesap - 5000 range_onhesap_1 >= 0
Min_Balance_Constraint_onhesap_10: deposit_onhesap - 150000 range_onhesap_10
 >= 0
Min_Balance_Constraint_onhesap_2: deposit_onhesap - 7500 range_onhesap_2 >= 0
Min_Balance_Constraint_onhesap_3: deposit_onhesap - 12500 range_onhesap_3 >= 0
Min_Balance_Constraint_onhesap_4: deposit_onhesap - 30000 range_onhesap_4 >= 0
Min_Balance_Constraint_onhesap_5: deposit_onhesap - 50000 range_onhesap_5 >= 0
Min_Balance_Constraint_onhesap_6: deposit_onhesap - 70000 range_onhesap_6 >= 0
Min_Balance_Constraint_onhesap_7: deposit_onhesap - 85000 range_onhesap_7 >= 0
Min_Balance_Constraint_onhesap_8: deposit_onhesap - 110000 range_onhesap_8
 >= 0
Min_Balance_Constraint_onhesap_9: deposit_onhesap - 125000 range_onhesap_9
 >= 0
Min_Balance_Constraint_teb_marifetli_hesap_0: deposit_teb_marifetli_hesap >= 0
Min_Balance_Constraint_teb_marifetli_hesap_1: deposit_teb_marifetli_hesap
 - 5000 range_teb_marifetli_hesap_1 >= 0
Min_Balance_Constraint_teb_marifetli_hesap_10: deposit_teb_marifetli_hesap
 - 200000 range_teb_marifetli_hesap_10 >= 0
Min_Balance_Constraint_teb_marifetli_hesap_2: deposit_teb_marifetli_hesap
 - 7500 range_teb_marifetli_hesap_2 >= 0
Min_Balance_Constraint_teb_marifetli_hesap_3: deposit_teb_marifetli_hesap
 - 15000 range_teb_marifetli_hesap_3 >= 0
Min_Balance_Constraint_teb_marifetli_hesap_4: deposit_teb_marifetli_hesap
 - 30000 range_teb_marifetli_hesap_4 >= 0
Min_Balance_Constraint_teb_marifetli_hesap_5: deposit_teb_marifetli_hesap
 - 50000 range_teb_marifetli_hesap_5 >= 0
Min_Balance_Constraint_teb_marifetli_hesap_6: deposit_teb_marifetli_hesap
 - 50000 range_teb_marifetli_hesap_6 >= 0
Min_Balance_Constraint_teb_marifetli_hesap_7: deposit_teb_marifetli_hesap
 - 75000 range_teb_marifetli_hesap_7 >= 0
Min_Balance_Constraint_teb_marifetli_hesap_8: deposit_teb_marifetli_hesap
 - 100000 range_teb_marifetli_hesap_8 >= 0
Min_Balance_Constraint_teb_marifetli_hesap_9: deposit_teb_marifetli_hesap
 - 150000 range_teb_marifetli_hesap_9 >= 0
Min_Limit_enpara_0: deposit_enpara >= 0
Min_Limit_enpara_1: deposit_enpara - 100001 range_enpara_1 >= 0
Min_Limit_enpara_2: deposit_enpara - 500001 range_enpara_2 >= 0
Min_Limit_enpara_3: deposit_enpara - 1000001 range_enpara_3 >= 0
Min_Limit_getir_finans_0: deposit_getir_finans >= 0
Min_Limit_getir_finans_1: deposit_getir_finans - 2500 range_getir_finans_1
 >= 0
Min_Limit_getir_finans_2: deposit_getir_finans - 25001 range_getir_finans_2
 >= 0
Min_Limit_getir_finans_3: deposit_getir_finans - 50001 range_getir_finans_3
 >= 0
Min_Limit_getir_finans_4: deposit_getir_finans - 100001 range_getir_finans_4
 >= 0
Min_Limit_getir_finans_5: deposit_getir_finans - 500001 range_getir_finans_5
 >= 0
Min_Limit_getir_finans_6: deposit_getir_finans - 1000001 range_getir_finans_6
 >= 0
Min_Limit_getir_finans_7: deposit_getir_finans - 2000001 range_getir_finans_7
 >= 0
Min_Limit_getir_finans_8: deposit_getir_finans - 2100001 range_getir_finans_8
 >= 0
Min_Limit_odeabank_devam_0: deposit_odeabank_devam >= 0
Min_Limit_odeabank_devam_1: deposit_odeabank_devam
 - 7500 range_odeabank_devam_1 >= 0
Min_Limit_odeabank_devam_2: deposit_odeabank_devam
 - 50000 range_odeabank_devam_2 >= 0
Min_Limit_odeabank_devam_3: deposit_odeabank_devam
 - 100001 range_odeabank_devam_3 >= 0
Min_Limit_odeabank_devam_4: deposit_odeabank_devam
 - 250001 range_odeabank_devam_4 >= 0
Min_Limit_odeabank_devam_5: deposit_odeabank_devam
 - 500000 range_odeabank_devam_5 >= 0
Min_Limit_odeabank_devam_6: deposit_odeabank_devam
 - 750001 range_odeabank_devam_6 >= 0
Min_Limit_odeabank_devam_7: deposit_odeabank_devam
 - 1000001 range_odeabank_devam_7 >= 0
Min_Limit_odeabank_devam_8: deposit_odeabank_devam
 - 2000001 range_odeabank_devam_8 >= 0
Min_Limit_odeabank_devam_9: deposit_odeabank_devam
 - 5000001 range_odeabank_devam_9 >= 0
Min_Limit_odeabank_hosgeldin_0: deposit_odeabank_hosgeldin >= 0
Min_Limit_odeabank_hosgeldin_1: deposit_odeabank_hosgeldin
 - 7500 range_odeabank_hosgeldin_1 >= 0
Min_Limit_odeabank_hosgeldin_2: deposit_odeabank_hosgeldin
 - 50001 range_odeabank_hosgeldin_2 >= 0
Min_Limit_odeabank_hosgeldin_3: deposit_odeabank_hosgeldin
 - 100001 range_odeabank_hosgeldin_3 >= 0
Min_Limit_odeabank_hosgeldin_4: deposit_odeabank_hosgeldin
 - 250001 range_odeabank_hosgeldin_4 >= 0
Min_Limit_odeabank_hosgeldin_5: deposit_odeabank_hosgeldin
 - 500001 range_odeabank_hosgeldin_5 >= 0
Min_Limit_odeabank_hosgeldin_6: deposit_odeabank_hosgeldin
 - 750001 range_odeabank_hosgeldin_6 >= 0
Min_Limit_odeabank_hosgeldin_7: deposit_odeabank_hosgeldin
 - 1000001 range_odeabank_hosgeldin_7 >= 0
Min_Limit_odeabank_hosgeldin_8: deposit_odeabank_hosgeldin
 - 2000001 range_odeabank_hosgeldin_8 >= 0
Min_Limit_odeabank_hosgeldin_9: deposit_odeabank_hosgeldin
 - 5000001 range_odeabank_hosgeldin_9 >= 0
Min_Limit_onhesap_0: deposit_onhesap >= 0
Min_Limit_onhesap_1: deposit_onhesap - 5500 range_onhesap_1 >= 0
Min_Limit_onhesap_10: deposit_onhesap - 1750000 range_onhesap_10 >= 0
Min_Limit_onhesap_2: deposit_onhesap - 50000 range_onhesap_2 >= 0
Min_Limit_onhesap_3: deposit_onhesap - 100000 range_onhesap_3 >= 0
Min_Limit_onhesap_4: deposit_onhesap - 250000 range_onhesap_4 >= 0
Min_Limit_onhesap_5: deposit_onhesap - 500000 range_onhesap_5 >= 0
Min_Limit_onhesap_6: deposit_onhesap - 750000 range_onhesap_6 >= 0
Min_Limit_onhesap_7: deposit_onhesap - 1000000 range_onhesap_7 >= 0
Min_Limit_onhesap_8: deposit_onhesap - 1250000 range_onhesap_8 >= 0
Min_Limit_onhesap_9: deposit_onhesap - 1500000 range_onhesap_9 >= 0
Min_Limit_teb_marifetli_hesap_0: deposit_teb_marifetli_hesap >= 0
Min_Limit_teb_marifetli_hesap_1: deposit_teb_marifetli_hesap
 - 2000 range_teb_marifetli_hesap_1 >= 0
Min_Limit_teb_marifetli_hesap_10: deposit_teb_marifetli_hesap
 - 3000001 range_teb_marifetli_hesap_10 >= 0
Min_Limit_teb_marifetli_hesap_2: deposit_teb_marifetli_hesap
 - 50000 range_teb_marifetli_hesap_2 >= 0
Min_Limit_teb_marifetli_hesap_3: deposit_teb_marifetli_hesap
 - 100000 range_teb_marifetli_hesap_3 >= 0
Min_Limit_teb_marifetli_hesap_4: deposit_teb_marifetli_hesap
 - 250000 range_teb_marifetli_hesap_4 >= 0
Min_Limit_teb_marifetli_hesap_5: deposit_teb_marifetli_hesap
 - 500000 range_teb_marifetli_hesap_5 >= 0
Min_Limit_teb_marifetli_hesap_6: deposit_teb_marifetli_hesap
 - 750000 range_teb_marifetli_hesap_6 >= 0
Min_Limit_teb_marifetli_hesap_7: deposit_teb_marifetli_hesap
 - 1000000 range_teb_marifetli_hesap_7 >= 0
Min_Limit_teb_marifetli_hesap_8: deposit_teb_marifetli_hesap
 - 1500001 range_teb_marifetli_hesap_8 >= 0
Min_Limit_teb_marifetli_hesap_9: deposit_teb_marifetli_hesap
 - 2000001 range_teb_marifetli_hesap_9 >= 0
One_Range_enpara: range_enpara_0 + range_enpara_1 + range_enpara_2
 + range_enpara_3 = 1
One_Range_getir_finans: range_getir_finans_0 + range_getir_finans_1
 + range_getir_finans_2 + range_getir_finans_3 + range_getir_finans_4
 + range_getir_finans_5 + range_getir_finans_6 + range_getir_finans_7
 + range_getir_finans_8 = 1
One_Range_odeabank_devam: range_odeabank_devam_0 + range_odeabank_devam_1
 + range_odeabank_devam_2 + range_odeabank_devam_3 + range_odeabank_devam_4
 + range_odeabank_devam_5 + range_odeabank_devam_6 + range_odeabank_devam_7
 + range_odeabank_devam_8 + range_odeabank_devam_9 = 1
One_Range_odeabank_hosgeldin: range_odeabank_hosgeldin_0
 + range_odeabank_hosgeldin_1 + range_odeabank_hosgeldin_2
 + range_odeabank_hosgeldin_3 + range_odeabank_hosgeldin_4
 + range_odeabank_hosgeldin_5 + range_odeabank_hosgeldin_6
 + range_odeabank_hosgeldin_7 + range_odeabank_hosgeldin_8
 + range_odeabank_hosgeldin_9 = 1
One_Range_onhesap: range_onhesap_0 + range_onhesap_1 + range_onhesap_10
 + range_onhesap_2 + range_onhesap_3 + range_onhesap_4 + range_onhesap_5
 + range_onhesap_6 + range_onhesap_7 + range_onhesap_8 + range_onhesap_9 = 1
One_Range_teb_marifetli_hesap: range_teb_marifetli_hesap_0
 + range_teb_marifetli_hesap_1 + range_teb_marifetli_hesap_10
 + range_teb_marifetli_hesap_2 + range_teb_marifetli_hesap_3
 + range_teb_marifetli_hesap_4 + range_teb_marifetli_hesap_5
 + range_teb_marifetli_hesap_6 + range_teb_marifetli_hesap_7
 + range_teb_marifetli_hesap_8 + range_teb_marifetli_hesap_9 = 1
Total_Deposit: deposit_enpara + deposit_getir_finans + deposit_odeabank_devam
 + deposit_odeabank_hosgeldin + deposit_onhesap + deposit_teb_marifetli_hesap
 = 3500000
Bounds
 deposit_enpara <= 3500000
 deposit_getir_finans <= 3500000
 deposit_odeabank_devam <= 3500000
 deposit_odeabank_hosgeldin <= 3500000
 deposit_onhesap <= 3500000
 deposit_teb_marifetli_hesap <= 3500000
Binaries
range_enpara_0
range_enpara_1
range_enpara_2
range_enpara_3
range_getir_finans_0
range_getir_finans_1
range_getir_finans_2
range_getir_finans_3
range_getir_finans_4
range_getir_finans_5
range_getir_finans_6
range_getir_finans_7
range_getir_finans_8
range_odeabank_devam_0
range_odeabank_devam_1
range_odeabank_devam_2
range_odeabank_devam_3
range_odeabank_devam_4
range_odeabank_devam_5
range_odeabank_devam_6
range_odeabank_devam_7
range_odeabank_devam_8
range_odeabank_devam_9
range_odeabank_hosgeldin_0
range_odeabank_hosgeldin_1
range_odeabank_hosgeldin_2
range_odeabank_hosgeldin_3
range_odeabank_hosgeldin_4
range_odeabank_hosgeldin_5
range_odeabank_hosgeldin_6
range_odeabank_hosgeldin_7
range_odeabank_hosgeldin_8
range_odeabank_hosgeldin_9
range_onhesap_0
range_onhesap_1
range_onhesap_10
range_onhesap_2
range_onhesap_3
range_onhesap_4
range_onhesap_5
range_onhesap_6
range_onhesap_7
range_onhesap_8
range_onhesap_9
range_teb_marifetli_hesap_0
range_teb_marifetli_hesap_1
range_teb_marifetli_hesap_10
range_teb_marifetli_hesap_2
range_teb_marifetli_hesap_3
range_teb_marifetli_hesap_4
range_teb_marifetli_hesap_5
range_teb_marifetli_hesap_6
range_teb_marifetli_hesap_7
range_teb_marifetli_hesap_8
range_teb_marifetli_hesap_9
End
